50

92 13 289
89 25 359
87 1 314
84 5 336
82 8 272
82 24 318
81 19 301
75 8 288
73 6 329
71 10 393
67 15 256
67 12 249
63 4 189
59 8 184
57 14 368
56 10 389
52 3 313
49 8 152
48 4 385
47 8 319
46 6 376
41 2 220
39 6 246
38 11 287
36 2 161
35 6 149
34 0 220
34 3 140
30 0 222
29 6 379
26 7 247
21 2 336
20 5 144
19 1 134
18 6 286
15 5 196
15 2 372
13 2 164
11 0 256
10 3 175
10 1 178
10 3 350
9 3 389
8 3 334
8 3 322
7 0 310
6 0 140
6 1 67
6 2 193
3 1 202
